477
14
465
60
371
402
17
469
178
483
212
217
191
387
86
396
472
13
105
317
102
438
385
14
286
104
438
79
372
492
314
8
225
44
104
494
171
476
396
199
158
181
193
83
20
346
43
448
387
49
67
248
238
272
337
250
392
131
228
76
291
438
274
106
237
472
129
147
262
482
112
330
24
192
106
249
340
210
272
255
217
6
271
427
322
374
312
343
328
15
288
228
236
373
406
333
309
139
131
471
